
Gurobi 11.0.3 (linux64) logging started Fri Apr 17 07:09:32 2026

Set parameter LogFile to value "tree/results/ctmc/ctmc_depth-4_run-4/Full MIP/LogFile_FullModel.txt"
Gurobi Optimizer version 11.0.3 build v11.0.3rc0 (linux64 - "CentOS Linux 7 (Core)")

CPU model: Intel(R) Xeon(R) Platinum 8260 CPU @ 2.40GHz, instruction set [SSE2|AVX|AVX2|AVX512]
Thread count: 96 physical cores, 192 logical processors, using up to 32 threads

Optimize a model with 230453 rows, 141919 columns and 2835765 nonzeros
Model fingerprint: 0x34ca1368
Model has 17664 general constraints
Variable types: 88714 continuous, 53205 integer (53205 binary)
Coefficient statistics:
  Matrix range     [9e-04, 1e+04]
  Objective range  [9e-04, 1e+04]
  Bounds range     [1e+00, 1e+03]
  RHS range        [1e-04, 1e+03]

User MIP start produced solution with objective -49199.4 (0.92s)
Loaded user MIP start with objective -49199.4
Processed MIP start in 1.12 seconds (0.23 work units)

Presolve added 17648 rows and 70656 columns
Presolve time: 4.82s
Presolved: 248101 rows, 212575 columns, 2977149 nonzeros
Presolved model has 70656 SOS constraint(s)
Variable types: 88714 continuous, 123861 integer (123861 binary)

Deterministic concurrent LP optimizer: primal simplex, dual simplex, and barrier
Showing barrier log only...

Root relaxation presolved: 248101 rows, 212575 columns, 2977149 nonzeros

Root barrier log...

Ordering time: 0.12s

Barrier statistics:
 Dense cols : 180
 AA' NZ     : 3.053e+06
 Factor NZ  : 1.189e+07 (roughly 300 MB of memory)
 Factor Ops : 6.146e+08 (less than 1 second per iteration)
 Threads    : 30

                  Objective                Residual
Iter       Primal          Dual         Primal    Dual     Compl     Time
   0  -9.83955581e+04  3.40113191e+09  1.10e+04 0.00e+00  7.79e+05    10s
   1  -4.51617796e+04  5.59616791e+09  1.21e+03 3.37e+01  1.71e+05    11s
   2  -2.72090483e+04  4.77396009e+09  1.22e+02 4.60e+00  2.41e+04    12s
   3  -1.55435308e+04  1.32482926e+09  1.21e+01 5.65e-01  3.59e+03    12s
   4  -1.60428673e+03  1.57266675e+08  1.20e+00 5.60e-02  3.85e+02    13s
   5  -1.59533928e+02  1.85405307e+07  1.19e-01 5.60e-03  4.23e+01    14s
   6  -1.50512315e+01  1.88936988e+06  1.21e-02 5.62e-04  4.23e+00    14s
   7  -6.02958823e-01  1.97929921e+05  1.43e-03 5.89e-05  4.42e-01    15s
   8   8.41660149e-01  2.57512869e+04  3.41e-04 7.65e-06  5.75e-02    15s
   9   9.62788347e-01  2.67318170e+03  3.38e-05 7.88e-07  5.97e-03    16s
  10   9.96269130e-01  2.68703385e+02  3.35e-06 7.89e-08  5.98e-04    16s
  11   9.99626844e-01  2.80202796e+01  3.32e-07 7.90e-09  6.03e-05    17s
  12   9.99962684e-01  3.70203053e+00  3.32e-08 7.90e-10  6.03e-06    17s
  13   9.99996268e-01  1.27272569e+00  3.29e-09 7.91e-11  6.08e-07    18s
  14   9.99999627e-01  1.02727257e+00  3.30e-10 7.91e-12  6.08e-08    19s
  15   9.99999963e-01  1.00275272e+00  3.29e-11 7.91e-13  6.13e-09    20s
  16   9.99999996e-01  1.00027527e+00  3.52e-12 7.91e-14  6.13e-10    21s
  17   1.00000000e+00  1.00002753e+00  6.82e-13 7.91e-15  6.13e-11    21s
  18   1.00000000e+00  1.00000275e+00  4.33e-13 7.91e-16  6.13e-12    22s
  19   1.00000000e+00  1.00000028e+00  4.33e-13 1.42e-14  6.13e-13    23s
  20   1.00000000e+00  1.00000003e+00  4.55e-13 7.92e-18  6.13e-14    23s
  21   1.00000000e+00  1.00000000e+00  4.26e-13 3.47e-18  6.13e-15    24s

Barrier solved model in 21 iterations and 24.10 seconds (16.62 work units)
Optimal objective 1.00000000e+00


Root crossover log...

   10654 DPushes remaining with DInf 0.0000000e+00                24s
       0 DPushes remaining with DInf 0.0000000e+00                24s

   83559 PPushes remaining with PInf 0.0000000e+00                25s
     141 PPushes remaining with PInf 0.0000000e+00                25s
       0 PPushes remaining with PInf 0.0000000e+00                27s

  Push phase complete: Pinf 0.0000000e+00, Dinf 0.0000000e+00     27s


Root simplex log...

Iteration    Objective       Primal Inf.    Dual Inf.      Time
   83563    1.0000000e+00   0.000000e+00   0.000000e+00     27s
   83563    1.0000000e+00   0.000000e+00   0.000000e+00     28s
Concurrent spin time: 0.01s

Solved with barrier

Root relaxation: objective 1.000000e+00, 83563 iterations, 20.43 seconds (13.00 work units)
Total elapsed time = 84.46s (DegenMoves)
Total elapsed time = 85.32s (DegenMoves)

    Nodes    |    Current Node    |     Objective Bounds      |     Work
 Expl Unexpl |  Obj  Depth IntInf | Incumbent    BestBd   Gap | It/Node Time

     0     0    1.00000    0 14767 -49199.416    1.00000   100%     -   85s
     0     2    1.00000    0 14767 -49199.416    1.00000   100%     -  623s
H    1     4                    -49199.41574    1.00000   100% 13513  988s
     3     8    1.00000    2 14763 -49199.416    1.00000   100%  4505  990s
    31    64    1.00000    5 14757 -49199.416    1.00000   100%   437 1389s
    63    96    1.00000    6 14755 -49199.416    1.00000   100%   215 1391s
    95   128    1.00000    7 14753 -49199.416    1.00000   100%   143 2159s
H  100   128                       0.5190217    1.00000  92.7%   136 2160s
H  103   128                       0.5579710    1.00000  79.2%   132 2160s
   159   192    1.00000    9 14749    0.55797    1.00000  79.2%  86.0 3402s
   191   224    1.00000   10 14749    0.55797    1.00000  79.2%  71.8 3601s

Explored 223 nodes (111130 simplex iterations) in 3603.12 seconds (4792.14 work units)
Thread count was 32 (of 192 available processors)

Solution count 4: 0.557971 0.519022 -49199.4 -49199.4 

Time limit reached
Best objective 5.579710144928e-01, best bound 1.000000000000e+00, gap 79.2208%

User-callback calls 1911430, time in user-callback 10.25 sec
